100
128
2
43
46
3
1
8
9
16
2
12
7
2
10
11
34
14
22
3
13
25
32
2
17
28
10
43
10
15
19
20
7
55
29
13
26
22
11
6
20
18
10
2
7
16
11
22
3
8
26
22
56
28
4
9
17
22
11
4
5
2
25
13
14
4
52
13
2
1
7
31
23
13
15
18
25
2
30
62
27
45
59
18
25
64
54
39
35
48
51
16
56
39
43
29
29
4
28
19
39
61